100001        0             1    100
5005          0             5    5  
0             0             0    0  
1             0             1    0  
3004          0             4    3  
3             0             3    0  
100           0             100  0  
1003          0             3    1  
4004          0             4    4  
3003          0             3    3  
100100        0             100  100
1001          0             1    1  
2             0             2    0  
100004        0             4    100
5             0             5    0  
3005          0             5    3  
2002          0             2    2  
100005        0             5    100
2005          0             5    2  
1005          0             5    1  
4005          0             5    4  
100003        0             3    100
2004          0             4    2  
1004          0             4    1  
100002        0             2    100
4             0             4    0  
2003          0             3    2  
1002          0             2    1  
